NAME : cluster_netgen
COMMENT : cl=7
TYPE : TSP
DIMENSION : 50
EDGE_WEIGHT_TYPE : EUC_2D
NODE_COORD_SECTION
1 176963 456530
2 170969 416421
3 102608 383661
4 15498 329993
5 88318 344924
6 58640 389160
7 30148 387245
8 293878 655556
9 339822 700295
10 234998 667578
11 153698 749104
12 294017 689511
13 306873 706674
14 246977 795995
15 254363 758202
16 835539 62354
17 782481 96011
18 891600 84425
19 792563 193763
20 793749 193186
21 770809 96926
22 783978 106522
23 577106 447548
24 610959 386270
25 606875 368916
26 579842 476768
27 711728 407694
28 612136 452443
29 663135 481461
30 863799 879435
31 797704 875953
32 845053 901635
33 878466 954552
34 909602 868436
35 931848 942799
36 941156 796191
37 491059 832006
38 573465 902083
39 472603 938962
40 394297 908390
41 533796 787758
42 550112 935653
43 570841 826134
44 300821 120694
45 319512 221912
46 339897 208348
47 379002 154904
48 267104 178056
49 343533 206418
50 326516 165797

EOF
